p td 22 102
2 1
5 2
6 4
7 3
7 6
8 4
8 2
8 5
8 3
9 6
9 3
9 4
10 8
10 7
10 5
10 6
10 9
11 2
11 5
11 8
11 9
11 3
12 11
12 8
12 2
12 6
12 3
13 8
13 5
13 11
13 10
13 3
14 12
14 4
14 1
14 3
14 2
14 11
14 6
15 10
15 1
15 4
15 9
15 2
15 5
15 7
15 6
16 13
16 14
16 12
16 6
16 11
17 12
17 9
17 14
17 10
17 7
17 2
17 6
17 3
17 4
18 10
18 8
18 7
18 6
18 1
19 18
19 4
19 7
19 12
19 13
19 16
19 3
19 2
20 19
20 1
20 12
20 13
20 7
20 2
20 15
20 8
21 18
21 4
21 17
21 3
21 7
21 20
21 2
21 15
21 19
21 6
21 14
22 3
22 21
22 9
22 15
22 2
22 11
22 6
22 10
22 5
